Problem:    
Rows:       195
Columns:    69 (54 integer, 54 binary)
Non-zeros:  710
Status:     INTEGER OPTIMAL
Objective:  value = 4.298236 (MINimum)

   No.   Row name        Activity     Lower bound   Upper bound
------ ------------    ------------- ------------- -------------
     1 r.5                    1004.3             0               
     2 r.6                  -996.208      -998.989               
     3 r.7                   4.29824             0               
     4 r.8                   4.29824      -994.665               
     5 r.9                    1004.3             0               
     6 r.10                  -997.94      -999.127               
     7 r.11                  4.29824             0               
     8 r.12                  3.79244      -994.988               
     9 r.13                   1004.3             0               
    10 r.14                 -997.219      -999.278               
    11 r.15                  4.29824             0               
    12 r.16                  3.79244       -994.46               
    13 r.17                   1004.3             0               
    14 r.18                 -999.466      -999.631               
    15 r.19                  4.29824             0               
    16 r.20                  2.05983      -995.729               
    17 r.21                   1004.3             0               
    18 r.22                 -998.813      -999.346               
    19 r.23                  4.29824             0               
    20 r.24                  3.79244      -995.983               
    21 r.25                   1004.3             0               
    22 r.26                 -999.836      -999.836               
    23 r.27                  4.29824             0               
    24 r.28                 0.164202      -996.953               
    25 r.29                   1004.3             0               
    26 r.30                 -995.702      -999.494               
    27 r.31                  4.29824             0               
    28 r.32                  4.29824      -997.597               
    29 r.33                        1             1             = 
    30 r.34                        1             1             = 
    31 r.35                        1             1             = 
    32 r.36                        1             1             = 
    33 r.37                        1             1             = 
    34 r.38                        1             1             = 
    35 r.39                        1             1             = 
    36 r.40                        2             2               
    37 r.41                       -2         -1001               
    38 r.42                 -1.73261      -999.127               
    39 r.43                     1000             2               
    40 r.44                    -1000         -1001               
    41 r.45                  1999.49      -994.988               
    42 r.46                        2             2               
    43 r.47                       -2         -1001               
    44 r.48                 -1.01109      -999.278               
    45 r.49                     1000             2               
    46 r.50                    -1000         -1001               
    47 r.51                  1999.49       -994.46               
    48 r.52                        2             2               
    49 r.53                       -2         -1001               
    50 r.54                 -3.25883      -999.631               
    51 r.55                     1000             2               
    52 r.56                    -1000         -1001               
    53 r.57                  1997.76      -995.729               
    54 r.58                        2             2               
    55 r.59                       -2         -1001               
    56 r.60                 -2.60532      -999.346               
    57 r.61                     1000             2               
    58 r.62                    -1000         -1001               
    59 r.63                  1999.49      -995.983               
    60 r.64                 -996.372      -998.989               
    61 r.65                  4.13403      -994.665               
    62 r.66                 -996.372      -998.989               
    63 r.67                  4.13403      -994.665               
    64 r.68                        2             2               
    65 r.69                       -2         -1001               
    66 r.70                 -999.494      -999.494               
    67 r.71                     1000             2               
    68 r.72                    -1000         -1001               
    69 r.73                     2000      -997.597               
    70 r.74                        2             2               
    71 r.75                       -2         -1001               
    72 r.76                  1.73261       1.01109               
    73 r.77                     1000             2               
    74 r.78                    -1000         -1001               
    75 r.79                  2000.51       5.33506               
    76 r.80                        2             2               
    77 r.81                       -2         -1001               
    78 r.82                 -999.278      -999.278               
    79 r.83                     1000             2               
    80 r.84                    -1000         -1001               
    81 r.85                     2000       -994.46               
    82 r.86                        2             2               
    83 r.87                       -2         -1001               
    84 r.88                 -1.52622      -999.631               
    85 r.89                     1000             2               
    86 r.90                    -1000         -1001               
    87 r.91                  1998.27      -995.729               
    88 r.92                        2             2               
    89 r.93                       -2         -1001               
    90 r.94                -0.872711      -999.346               
    91 r.95                     1000             2               
    92 r.96                    -1000         -1001               
    93 r.97                     2000      -995.983               
    94 r.98                 -998.104      -999.127               
    95 r.99                  3.62823      -994.988               
    96 r.100                -998.104      -999.127               
    97 r.101                 3.62823      -994.988               
    98 r.102                -997.762      -999.494               
    99 r.103                 2.23841      -997.597               
   100 r.104                -999.494      -999.494               
   101 r.105                  0.5058      -997.597               
   102 r.106                       2             2               
   103 r.107                      -2         -1001               
   104 r.108                 1.01109       1.01109               
   105 r.109                    1000             2               
   106 r.110                   -1000         -1001               
   107 r.111                 2000.51       5.33506               
   108 r.112                       2             2               
   109 r.113                      -2         -1001               
   110 r.114                 999.278      0.872711               
   111 r.115                    1000             2               
   112 r.116                   -1000         -1001               
   113 r.117                    2000       5.01233               
   114 r.118                -997.752      -999.278               
   115 r.119                 3.25883       -994.46               
   116 r.120                -999.278      -999.278               
   117 r.121                 1.73261       -994.46               
   118 r.122                       2             2               
   119 r.123                      -2         -1001               
   120 r.124                -1.59423      -999.346               
   121 r.125                    1000             2               
   122 r.126                   -1000         -1001               
   123 r.127                    2000      -995.983               
   124 r.128                -997.383      -999.278               
   125 r.129                 3.62823       -994.46               
   126 r.130                -997.383      -999.278               
   127 r.131                 3.62823       -994.46               
   128 r.132                -998.483      -999.494               
   129 r.133                 1.51689      -997.597               
   130 r.134                -999.494      -999.494               
   131 r.135                  0.5058      -997.597               
   132 r.136                       2             2               
   133 r.137                      -2         -1001               
   134 r.138                 3.25883       1.01109               
   135 r.139                    1000             2               
   136 r.140                   -1000         -1001               
   137 r.141                 2002.24       5.33506               
   138 r.142                       2             2               
   139 r.143                      -2         -1001               
   140 r.144                 1.52622      0.872711               
   141 r.145                    1000             2               
   142 r.146                   -1000         -1001               
   143 r.147                 2001.73       5.01233               
   144 r.148                       2             2               
   145 r.149                      -2         -1001               
   146 r.150                -999.346      -999.346               
   147 r.151                    1000             2               
   148 r.152                   -1000         -1001               
   149 r.153                 2001.73      -995.983               
   150 r.154                -999.631      -999.631               
   151 r.155                 1.89562      -995.729               
   152 r.156                -999.631      -999.631               
   153 r.157                 1.89562      -995.729               
   154 r.158                -996.235      -999.494               
   155 r.159                 3.76463      -997.597               
   156 r.160                -997.762      -999.494               
   157 r.161                 2.23841      -997.597               
   158 r.162                       2             2               
   159 r.163                      -2         -1001               
   160 r.164                 2.60532       1.01109               
   161 r.165                    1000             2               
   162 r.166                   -1000         -1001               
   163 r.167                 2000.51       5.33506               
   164 r.168                       2             2               
   165 r.169                      -2         -1001               
   166 r.170                0.872711      0.872711               
   167 r.171                    1000             2               
   168 r.172                   -1000         -1001               
   169 r.173                    2000       5.01233               
   170 r.174                       2             2               
   171 r.175                      -2         -1001               
   172 r.176                 1.59423      0.721522               
   173 r.177                    1000             2               
   174 r.178                   -1000         -1001               
   175 r.179                    2000       5.53962               
   176 r.180                       2             2               
   177 r.181                      -2         -1001               
   178 r.182                 999.346        0.3694               
   179 r.183                    1000             2               
   180 r.184                   -1000         -1001               
   181 r.185                 1998.27       4.27064               
   182 r.186                -998.977      -999.346               
   183 r.187                 3.62823      -995.983               
   184 r.188                -998.977      -999.346               
   185 r.189                 3.62823      -995.983               
   186 r.190                -996.889      -999.494               
   187 r.191                 3.11112      -997.597               
   188 r.192                -999.494      -999.494               
   189 r.193                  0.5058      -997.597               
   190 r.194                       2             2               
   191 r.195                      -2         -1001               
   192 r.196                 999.494       1.01109               
   193 r.197                    1000             2               
   194 r.198                   -1000         -1001               
   195 r.199                    2000       5.33506               

   No. Column name       Activity     Lower bound   Upper bound
------ ------------    ------------- ------------- -------------
     1 tt                    4.29824             0               
     2 s_1_1        *              1             0             1 
     3 t_1_1                  0.5058             0               
     4 s_2_1        *              0             0             1 
     5 t_2_1                       0             0               
     6 s_1_2        *              1             0             1 
     7 t_1_2                 2.23841             0               
     8 s_1_7        *              1             0             1 
     9 s_2_2        *              0             0             1 
    10 t_2_2                  0.5058             0               
    11 s_2_7        *              0             0             1 
    12 s_1_3        *              1             0             1 
    13 t_1_3                 1.51689             0               
    14 s_2_3        *              0             0             1 
    15 t_2_3                  0.5058             0               
    16 s_1_4        *              1             0             1 
    17 t_1_4                 3.76463             0               
    18 s_2_4        *              0             0             1 
    19 t_2_4                 2.23841             0               
    20 s_1_5        *              1             0             1 
    21 t_1_5                 3.11112             0               
    22 s_2_5        *              0             0             1 
    23 t_2_5                  0.5058             0               
    24 s_1_6        *              1             0             1 
    25 t_1_6                 4.13403             0               
    26 s_2_6        *              0             0             1 
    27 t_2_6                 4.13403             0               
    28 t_1_7                       0             0               
    29 t_2_7                       0             0               
    30 r_1_1_2      *              0             0             1 
    31 u_1_1_2      *              0             0             1 
    32 r_2_1_2      *              1             0             1 
    33 u_2_1_2      *              0             0             1 
    34 r_1_1_3      *              0             0             1 
    35 u_1_1_3      *              0             0             1 
    36 r_2_1_3      *              1             0             1 
    37 u_2_1_3      *              0             0             1 
    38 r_1_1_4      *              0             0             1 
    39 u_1_1_4      *              0             0             1 
    40 r_2_1_4      *              1             0             1 
    41 u_2_1_4      *              0             0             1 
    42 r_1_1_5      *              0             0             1 
    43 u_1_1_5      *              0             0             1 
    44 r_2_1_5      *              1             0             1 
    45 u_2_1_5      *              0             0             1 
    46 r_1_1_7      *              0             0             1 
    47 u_1_1_7      *              1             0             1 
    48 r_2_1_7      *              1             0             1 
    49 u_2_1_7      *              0             0             1 
    50 r_1_2_3      *              0             0             1 
    51 u_1_2_3      *              1             0             1 
    52 r_2_2_3      *              1             0             1 
    53 u_2_2_3      *              0             0             1 
    54 r_1_2_4      *              0             0             1 
    55 u_1_2_4      *              0             0             1 
    56 r_2_2_4      *              1             0             1 
    57 u_2_2_4      *              0             0             1 
    58 r_1_2_5      *              0             0             1 
    59 u_1_2_5      *              0             0             1 
    60 r_2_2_5      *              1             0             1 
    61 u_2_2_5      *              0             0             1 
    62 r_1_3_5      *              0             0             1 
    63 u_1_3_5      *              0             0             1 
    64 r_2_3_5      *              1             0             1 
    65 u_2_3_5      *              0             0             1 
    66 r_1_4_5      *              0             0             1 
    67 u_1_4_5      *              1             0             1 
    68 r_2_4_5      *              1             0             1 
    69 u_2_4_5      *              0             0             1 

Integer feasibility conditions:

KKT.PE: max.abs.err = 2.27e-13 on row 87
        max.rel.err = 8.22e-17 on row 50
        High quality

KKT.PB: max.abs.err = 3.00e-14 on row 104
        max.rel.err = 1.49e-14 on row 104
        High quality

End of output
